
 102    0


   0  41 2 3 4 5 6 7 8 9 10 11 12 13 14 15 16 17 18 19 21 22 23 24 26 27 29 30 31 33 34 35 36 37 38 41 42 48 49 50 58 59 101 
   7  23 94 92 88 87 86 85 82 81 77 76 75 74 70 69 68 67 66 65 61 53 51 45 43 
   4  22 99 88 86 83 82 81 80 78 73 72 70 69 68 67 66 65 63 61 60 57 45 39 
   7  16 100 96 92 88 84 82 80 75 74 73 72 68 65 51 28 25 
   2  23 97 91 85 82 80 79 78 77 76 75 74 73 71 70 69 68 67 66 65 64 62 61 44 
   1  17 96 85 84 82 81 80 78 75 74 69 68 67 66 55 45 43 32 
   3  13 92 91 86 82 79 77 76 75 67 66 65 52 20 
   4  19 97 95 93 90 89 87 86 78 76 74 69 68 67 66 64 63 62 60 52 
   8  15 93 87 84 83 82 80 71 68 67 64 63 60 54 52 46 
   7  17 95 93 92 87 86 84 81 80 79 74 68 66 65 64 63 61 60 
   2  15 94 90 86 83 74 73 72 71 67 66 65 64 62 61 54 
   9  12 91 88 83 77 74 71 67 66 65 62 51 43 
   7  14 94 90 89 83 81 80 79 75 65 64 63 62 61 56 
   9  12 81 75 73 72 68 66 65 64 63 62 60 52 
   8  12 98 81 77 75 73 69 67 64 63 62 61 53 
   2  11 97 93 88 84 83 80 69 62 61 60 47 
   2  11 96 94 85 81 80 77 74 72 71 68 51 
   3   9 85 82 78 73 72 68 66 60 39 
   7  10 91 79 75 69 66 65 62 61 60 51 
   8   9 95 87 78 73 72 70 62 61 44 
   3  10 98 74 72 71 68 67 65 64 62 60 
   3   9 82 78 73 67 66 63 62 61 60 
   6   9 84 83 77 74 73 70 65 64 61 
   4   6 89 83 67 64 61 40 
   9   7 85 71 70 64 62 61 60 
   4   7 79 74 71 69 65 63 62 
   5   6 90 75 70 65 63 51 
   2   5 76 70 69 61 44 
   1   6 78 71 68 66 63 62 
   4   6 89 70 69 63 61 60 
   5   5 72 67 65 63 51 
  10   5 76 64 62 61 60 
  10   4 78 69 61 60 
   2   4 72 67 62 61 
   6   4 71 70 66 60 
   6   4 69 68 62 60 
   5   4 72 69 61 60 
   1   4 73 68 65 61 
   3   3 75 64 62 
  10   3 79 63 60 
   3   3 77 70 60 
   1   3 81 74 61 
   2   1 44 
   8   2 63 60 
   7   2 71 62 
   4   2 73 62 
   3   2 72 63 
   1   2 65 64 
   8   2 77 70 
   6   2 84 70 
  10   1 64 
   5   1 61 
   6   1 60 
   8   1 76 
   7   1 63 
   6   1 60 
   1   1 79 
   2   1 64 
   8   1 77 
   3   1 102
   3   1 102
   2   1 102
   8   1 102
   6   1 102
   6   1 102
   8   1 102
   8   1 102
   2   1 102
   3   1 102
   4   1 102
   9   1 102
   3   1 102
  10   1 102
   8   1 102
   8   1 102
   1   1 102
   8   1 102
   2   1 102
  10   1 102
   2   1 102
   9   1 102
   8   1 102
   2   1 102
   9   1 102
   7   1 102
   7   1 102
   4   1 102
   2   1 102
   3   1 102
   5   1 102
   9   1 102
   5   1 102
   1   1 102
   5   1 102
   7   1 102
  10   1 102
   3   1 102
   8   1 102
   5   1 102
   6   1 102
   7   1 102
   0   0 
